Normalized Data/p04_14_normalized_splitx10_0.vrp
NAME:p04_14_NORMALIZED_splitx10_
BEST_KNOWN: 0
COMMENT: 0
DIMENSION: 632
CAPACITY: 1000
EDGE_WEIGHT_FORMAT: FUNCTION
EDGE_WEIGHT_TYPE: EXACT_2D
NODE_COORD_SECTION
1 0.00000 0.00000
2 -35 -46
3 -35 -46
4 -35 -46
5 -35 -46
6 26 37
7 26 37
8 26 37
9 26 37
10 26 37
11 26 37
12 -5 22
13 -5 22
14 -5 22
15 -5 22
16 -5 22
17 -5 22
18 16 -27
19 16 -27
20 16 -27
21 37 -38
22 37 -38
23 37 -38
24 4 6
25 4 6
26 4 6
27 4 6
28 15 47
29 15 47
30 15 47
31 38 14
32 38 14
33 38 14
34 38 14
35 38 14
36 20 -26
37 7 -46
38 7 -46
39 7 -46
40 7 -46
41 -30 -1
42 -30 -1
43 -32 -8
44 -32 -8
45 -32 -8
46 -32 -8
47 -32 -8
48 -32 -8
49 48 33
50 48 33
51 48 33
52 48 33
53 8 2
54 8 2
55 8 2
56 8 2
57 8 2
58 26 -47
59 26 -47
60 26 -47
61 26 -47
62 -21 -25
63 -21 -25
64 -21 -25
65 -21 -25
66 47 17
67 47 17
68 47 17
69 47 17
70 47 17
71 47 17
72 46 -45
73 46 -45
74 46 -45
75 46 -45
76 15 -14
77 15 -14
78 15 -14
79 15 -14
80 15 -14
81 -37 44
82 -37 44
83 -37 44
84 -37 44
85 -37 44
86 38 11
87 38 11
88 38 11
89 38 11
90 38 11
91 38 11
92 35 48
93 35 48
94 35 48
95 35 48
96 22 30
97 22 30
98 22 30
99 22 30
100 22 30
101 -28 -45
102 -28 -45
103 46 33
104 46 33
105 -29 -35
106 -29 -35
107 -29 -35
108 -29 -35
109 -29 -35
110 -50 -40
111 -50 -40
112 -50 -40
113 -50 -40
114 2 45
115 2 45
116 2 45
117 2 45
118 2 45
119 10 -33
120 10 -33
121 10 -33
122 -29 -6
123 -29 -6
124 -29 -6
125 -29 -6
126 -18 40
127 -18 40
128 15 -28
129 30 -15
130 30 -15
131 21 -41
132 21 -41
133 21 -41
134 21 -41
135 47 34
136 47 34
137 47 34
138 47 34
139 49 14
140 -21 -27
141 -21 -27
142 -21 -27
143 29 9
144 29 9
145 -47 -20
146 -47 -20
147 -47 -20
148 -47 -20
149 -47 -20
150 -47 -20
151 -47 -20
152 -9 31
153 -9 31
154 -9 31
155 -9 31
156 -9 31
157 -9 31
158 31 18
159 31 18
160 31 18
161 31 18
162 31 18
163 -45 -18
164 -50 3
165 -50 3
166 -50 3
167 43 32
168 43 32
169 43 32
170 43 32
171 -50 -24
172 -50 -24
173 -50 -24
174 -18 24
175 -18 24
176 -18 24
177 -18 24
178 -18 24
179 -18 24
180 44 16
181 44 16
182 44 16
183 44 16
184 44 16
185 23 -29
186 23 -29
187 -32 0
188 -32 0
189 -32 0
190 -32 0
191 -30 -5
192 -30 -5
193 -30 -5
194 -30 -5
195 -30 -5
196 -30 -5
197 -40 -32
198 -40 -32
199 -40 -32
200 -40 -32
201 -40 -32
202 44 33
203 44 33
204 44 33
205 44 33
206 44 33
207 35 35
208 35 35
209 35 35
210 35 35
211 35 35
212 35 35
213 39 -41
214 39 -41
215 39 -41
216 39 -41
217 39 -41
218 39 -41
219 39 -41
220 -45 21
221 -45 21
222 -45 21
223 -45 21
224 -24 -7
225 -24 -7
226 -24 -7
227 -24 -7
228 -24 -7
229 -44 -31
230 -44 -31
231 -44 -31
232 42 -15
233 42 -15
234 42 -15
235 42 -15
236 42 -15
237 -26 -45
238 -26 -45
239 -26 -45
240 -26 -45
241 26 0
242 26 0
243 26 0
244 26 0
245 14 -29
246 14 -29
247 14 -29
248 14 -29
249 14 -29
250 14 -29
251 21 -8
252 21 -8
253 23 -3
254 23 -3
255 23 -3
256 23 -3
257 23 -3
258 -49 41
259 -49 41
260 -49 41
261 -49 41
262 -49 41
263 27 -12
264 27 -12
265 27 -12
266 27 -12
267 27 -12
268 27 -12
269 18 -50
270 18 -50
271 18 -50
272 0 -12
273 0 -12
274 0 -12
275 0 -12
276 0 -12
277 0 -12
278 -47 -23
279 -47 -23
280 -47 -23
281 -47 -23
282 -47 -23
283 0 10
284 0 10
285 0 10
286 0 10
287 0 10
288 21 1
289 21 1
290 21 1
291 21 1
292 21 1
293 23 -38
294 23 -38
295 -15 36
296 -15 36
297 -32 21
298 -32 21
299 -32 21
300 39 47
301 39 47
302 39 47
303 -16 17
304 -16 17
305 -16 17
306 -16 17
307 -16 17
308 5 -43
309 5 -43
310 5 -43
311 5 -43
312 19 -3
313 19 -3
314 19 -3
315 19 -3
316 13 -23
317 13 -23
318 13 -23
319 13 -23
320 13 -23
321 -3 32
322 -3 32
323 -3 32
324 -3 32
325 -3 32
326 50 36
327 50 36
328 50 36
329 50 36
330 -18 -31
331 -48 -17
332 -48 -17
333 -48 -17
334 -48 -17
335 -11 -1
336 -11 -1
337 -38 25
338 -38 25
339 -38 25
340 22 -36
341 22 -36
342 22 -36
343 22 -36
344 22 -36
345 22 -36
346 37 -25
347 37 -25
348 37 -25
349 37 -25
350 37 -25
351 37 -25
352 3 38
353 3 38
354 3 38
355 3 38
356 3 38
357 3 38
358 33 5
359 33 5
360 33 5
361 33 5
362 33 5
363 33 5
364 -8 -45
365 -8 -45
366 -42 32
367 -42 32
368 -46 -19
369 -46 -19
370 -46 -19
371 -46 -19
372 -46 -19
373 -46 -19
374 -43 -4
375 -43 -4
376 -43 -4
377 31 -11
378 31 -11
379 16 3
380 16 3
381 16 3
382 16 3
383 29 -28
384 29 -28
385 29 -28
386 29 -28
387 29 -28
388 33 36
389 33 36
390 33 36
391 33 36
392 45 -40
393 45 -40
394 45 -40
395 -10 37
396 -10 37
397 -10 37
398 -11 19
399 -11 19
400 -11 19
401 -11 19
402 13 14
403 13 14
404 13 14
405 13 14
406 13 14
407 -6 -16
408 -6 -16
409 -6 -16
410 -6 -16
411 -48 -33
412 -48 -33
413 -48 -33
414 -21 -23
415 -21 -23
416 -21 -23
417 22 23
418 22 23
419 22 23
420 22 23
421 4 -28
422 4 -28
423 4 -28
424 4 -28
425 4 -28
426 4 -28
427 9 21
428 9 21
429 9 21
430 9 21
431 9 21
432 9 21
433 9 21
434 -4 33
435 -4 33
436 47 34
437 47 34
438 -35 22
439 -35 22
440 -35 22
441 -35 22
442 -35 22
443 -35 22
444 2 -38
445 2 -38
446 2 -38
447 -34 18
448 -34 18
449 -34 18
450 -34 18
451 -34 18
452 -48 -25
453 -48 -25
454 -48 -25
455 -12 -26
456 -12 -26
457 30 1
458 30 1
459 30 1
460 -10 6
461 -10 6
462 -10 6
463 -10 6
464 -10 6
465 -10 6
466 -14 10
467 -14 10
468 0 -18
469 0 -18
470 0 -18
471 0 -18
472 23 -19
473 23 -19
474 23 -19
475 23 -19
476 23 -19
477 23 -19
478 23 -19
479 20 -21
480 20 -21
481 20 -21
482 20 -21
483 20 -21
484 -3 19
485 -3 19
486 -3 19
487 -3 19
488 3 -36
489 3 -36
490 3 -36
491 3 -36
492 30 21
493 30 21
494 30 21
495 30 21
496 30 21
497 30 21
498 30 21
499 31 -36
500 31 -36
501 31 -36
502 31 -36
503 31 -36
504 31 -36
505 29 31
506 29 31
507 29 31
508 29 31
509 29 31
510 29 31
511 29 31
512 0 -49
513 0 -49
514 27 10
515 27 10
516 27 10
517 27 10
518 27 10
519 -20 -2
520 -20 -2
521 -20 -2
522 -20 -2
523 -20 -2
524 -20 -2
525 20 44
526 20 44
527 20 44
528 20 44
529 20 44
530 20 44
531 20 44
532 12 46
533 12 46
534 12 46
535 12 46
536 12 46
537 -27 45
538 -27 45
539 -27 45
540 -27 45
541 -22 22
542 -22 22
543 -22 22
544 -22 22
545 12 4
546 12 4
547 12 4
548 12 4
549 -1 18
550 -1 18
551 -26 -10
552 -26 -10
553 -26 -10
554 -25 -18
555 -25 -18
556 -25 -18
557 -25 -18
558 -25 -18
559 -25 -18
560 -23 -13
561 -23 -13
562 -23 -13
563 -23 -13
564 -39 -49
565 -39 -49
566 -39 -49
567 -39 -49
568 18 49
569 18 49
570 18 49
571 18 49
572 18 49
573 20 19
574 20 19
575 20 19
576 20 19
577 20 19
578 20 19
579 -47 37
580 -47 37
581 -47 37
582 -47 37
583 -47 37
584 -47 37
585 8 -47
586 8 -47
587 8 -47
588 8 -47
589 8 -47
590 8 -47
591 7 -30
592 7 -30
593 7 -30
594 7 -30
595 7 -30
596 33 21
597 33 21
598 33 21
599 33 21
600 33 21
601 33 21
602 10 14
603 10 14
604 10 14
605 10 14
606 -31 22
607 -31 22
608 -31 22
609 -31 22
610 -31 22
611 -31 22
612 22 0
613 22 0
614 22 0
615 22 0
616 22 0
617 -11 29
618 -11 29
619 -11 29
620 -11 29
621 -11 29
622 -11 29
623 -40 -15
624 -40 -15
625 -40 -15
626 -40 -15
627 -40 -15
628 20 -19
629 -47 -20
630 -47 -20
631 -47 -20
632 -47 -20
DEMAND_SECTION
1 0
2 200
3 100
4 50
5 10
6 200
7 200
8 50
9 10
10 10
11 10
12 200
13 200
14 10
15 10
16 10
17 10
18 200
19 200
20 50
21 100
22 50
23 10
24 200
25 100
26 10
27 10
28 100
29 50
30 10
31 200
32 100
33 10
34 10
35 10
36 200
37 200
38 200
39 10
40 10
41 200
42 50
43 200
44 100
45 10
46 10
47 10
48 10
49 200
50 50
51 10
52 10
53 200
54 100
55 10
56 10
57 10
58 100
59 10
60 10
61 10
62 200
63 100
64 10
65 10
66 200
67 100
68 10
69 10
70 10
71 10
72 200
73 200
74 50
75 10
76 200
77 200
78 50
79 10
80 10
81 200
82 200
83 50
84 10
85 10
86 100
87 50
88 10
89 10
90 10
91 10
92 100
93 50
94 10
95 10
96 200
97 10
98 10
99 10
100 10
101 200
102 100
103 200
104 100
105 200
106 100
107 50
108 10
109 10
110 200
111 10
112 10
113 10
114 200
115 10
116 10
117 10
118 10
119 200
120 200
121 50
122 100
123 10
124 10
125 10
126 200
127 50
128 200
129 100
130 50
131 200
132 100
133 50
134 10
135 200
136 50
137 10
138 10
139 200
140 200
141 100
142 10
143 200
144 200
145 200
146 200
147 50
148 10
149 10
150 10
151 10
152 200
153 100
154 10
155 10
156 10
157 10
158 200
159 200
160 50
161 10
162 10
163 200
164 200
165 100
166 50
167 200
168 200
169 10
170 10
171 200
172 200
173 100
174 200
175 200
176 50
177 10
178 10
179 10
180 200
181 100
182 50
183 10
184 10
185 200
186 50
187 100
188 10
189 10
190 10
191 200
192 50
193 10
194 10
195 10
196 10
197 100
198 50
199 10
200 10
201 10
202 200
203 200
204 10
205 10
206 10
207 200
208 50
209 10
210 10
211 10
212 10
213 200
214 200
215 50
216 10
217 10
218 10
219 10
220 200
221 10
222 10
223 10
224 200
225 100
226 10
227 10
228 10
229 200
230 100
231 10
232 200
233 100
234 10
235 10
236 10
237 200
238 100
239 10
240 10
241 100
242 10
243 10
244 10
245 200
246 200
247 10
248 10
249 10
250 10
251 200
252 100
253 200
254 100
255 50
256 10
257 10
258 200
259 10
260 10
261 10
262 10
263 200
264 100
265 50
266 10
267 10
268 10
269 200
270 10
271 10
272 100
273 50
274 10
275 10
276 10
277 10
278 200
279 200
280 50
281 10
282 10
283 200
284 50
285 10
286 10
287 10
288 200
289 100
290 50
291 10
292 10
293 200
294 50
295 200
296 100
297 200
298 200
299 50
300 200
301 100
302 50
303 200
304 50
305 10
306 10
307 10
308 100
309 50
310 10
311 10
312 100
313 10
314 10
315 10
316 100
317 10
318 10
319 10
320 10
321 200
322 10
323 10
324 10
325 10
326 200
327 50
328 10
329 10
330 200
331 100
332 50
333 10
334 10
335 200
336 100
337 200
338 100
339 50
340 200
341 200
342 50
343 10
344 10
345 10
346 200
347 100
348 50
349 10
350 10
351 10
352 200
353 50
354 10
355 10
356 10
357 10
358 200
359 100
360 10
361 10
362 10
363 10
364 200
365 100
366 200
367 200
368 200
369 50
370 10
371 10
372 10
373 10
374 200
375 200
376 10
377 100
378 50
379 200
380 100
381 50
382 10
383 200
384 50
385 10
386 10
387 10
388 100
389 50
390 10
391 10
392 200
393 100
394 10
395 200
396 200
397 50
398 200
399 100
400 50
401 10
402 200
403 10
404 10
405 10
406 10
407 200
408 50
409 10
410 10
411 200
412 100
413 10
414 200
415 100
416 10
417 100
418 10
419 10
420 10
421 200
422 200
423 10
424 10
425 10
426 10
427 200
428 100
429 50
430 10
431 10
432 10
433 10
434 200
435 200
436 200
437 100
438 100
439 50
440 10
441 10
442 10
443 10
444 100
445 50
446 10
447 200
448 50
449 10
450 10
451 10
452 200
453 100
454 50
455 200
456 100
457 200
458 10
459 10
460 200
461 200
462 10
463 10
464 10
465 10
466 200
467 100
468 200
469 10
470 10
471 10
472 200
473 100
474 50
475 10
476 10
477 10
478 10
479 100
480 50
481 10
482 10
483 10
484 200
485 50
486 10
487 10
488 200
489 10
490 10
491 10
492 200
493 100
494 50
495 10
496 10
497 10
498 10
499 200
500 50
501 10
502 10
503 10
504 10
505 200
506 200
507 50
508 10
509 10
510 10
511 10
512 200
513 100
514 100
515 50
516 10
517 10
518 10
519 200
520 100
521 10
522 10
523 10
524 10
525 200
526 200
527 50
528 10
529 10
530 10
531 10
532 200
533 10
534 10
535 10
536 10
537 200
538 10
539 10
540 10
541 100
542 10
543 10
544 10
545 200
546 50
547 10
548 10
549 200
550 10
551 200
552 100
553 50
554 200
555 100
556 10
557 10
558 10
559 10
560 200
561 10
562 10
563 10
564 200
565 200
566 10
567 10
568 200
569 200
570 10
571 10
572 10
573 100
574 50
575 10
576 10
577 10
578 10
579 100
580 50
581 10
582 10
583 10
584 10
585 100
586 50
587 10
588 10
589 10
590 10
591 200
592 100
593 50
594 10
595 10
596 200
597 200
598 50
599 10
600 10
601 10
602 100
603 50
604 10
605 10
606 200
607 100
608 50
609 10
610 10
611 10
612 200
613 50
614 10
615 10
616 10
617 200
618 200
619 50
620 10
621 10
622 10
623 200
624 100
625 10
626 10
627 10
628 200
629 200
630 50
631 10
632 10
DEPOT_SECTION
1
-1
EOF