Normalized Data/p04_14_normalized_splitx10_0.sol
631 -1 3 2 4 565 563 564 566 104 63 64 -10 7 92 94 93 91 299 300 301 166 167 168 169 -14 15 11 13 12 16 483 484 486 485 549 548 -22 21 20 214 212 218 217 213 215 216 502 499 500 498 501 503 -25 23 603 601 604 602 426 427 432 429 430 431 428 286 282 -26 24 405 402 401 403 575 577 576 573 572 574 161 159 160 158 157 -27 29 525 529 530 524 527 6 8 5 9 96 97 99 -35 184 185 341 340 339 343 344 342 -48 50 49 51 102 103 201 202 -54 55 52 56 53 379 380 378 381 544 545 546 547 -62 61 139 140 141 454 455 408 409 407 -77 478 479 481 482 480 74 71 73 72 392 391 393 -79 78 75 76 627 473 471 474 472 476 477 -81 80 82 84 83 538 539 537 536 125 126 -95 98 528 526 568 571 570 567 569 28 531 532 534 535 533 -108 107 105 106 100 101 237 239 236 238 329 -127 248 247 249 120 118 119 590 591 -130 131 133 132 269 270 268 59 60 57 58 292 293 -135 435 436 136 137 134 328 326 327 325 204 205 203 416 -138 67 65 66 68 70 69 181 180 183 179 182 -143 142 87 86 89 85 88 90 32 34 31 33 30 517 514 -149 144 631 145 370 368 367 371 162 623 625 -154 156 153 155 152 151 619 616 620 617 621 618 398 399 400 -188 189 164 165 163 373 374 375 626 624 622 -199 198 200 197 196 109 112 111 110 412 410 411 228 -209 206 211 210 207 208 388 390 389 387 509 504 507 506 505 508 510 417 419 418 404 -223 225 121 123 122 194 191 192 190 193 195 186 187 41 40 520 521 -226 224 227 559 561 562 560 558 557 556 555 553 554 413 415 414 -229 230 453 452 451 171 172 170 372 369 -235 231 233 232 234 346 350 345 347 348 349 383 382 386 385 384 475 -244 245 246 17 19 18 317 316 319 318 315 -250 251 377 376 129 128 262 266 264 267 265 263 -273 276 271 310 307 308 309 38 36 39 37 584 585 586 588 589 587 592 594 593 -275 272 274 470 467 469 468 424 421 422 425 423 420 406 -277 280 278 281 279 150 146 628 629 148 147 630 333 331 330 332 522 523 -283 284 285 356 352 353 351 355 354 113 115 116 114 117 433 434 -287 243 240 241 242 457 458 456 360 358 357 361 359 362 -290 288 291 289 614 612 611 615 613 253 254 252 256 255 311 314 312 313 -294 295 394 396 395 324 323 321 320 322 -297 298 296 605 610 606 609 607 608 542 543 540 541 -306 305 303 304 302 173 177 176 175 178 174 397 -335 334 466 465 459 460 -338 337 583 582 580 579 578 581 259 257 261 260 258 366 365 -363 364 512 511 443 444 445 487 490 489 488 -450 449 448 447 446 221 219 222 220 336 442 439 440 437 438 441 461 463 464 462 -493 492 496 494 495 497 491 597 599 598 600 595 596 516 515 513 -519 518 124 44 45 47 42 46 43 550 551 552 0 





OBJ=
4243.982
BEST_KNOWN=
0.000